c accuracy 65.8207343412527
c depth 17
p cnf 42 242
1 2 -3 4 6 7 8 9 11 -12 0
1 2 -3 4 -6 8 11 0
1 2 -3 -4 8 9 -12 0
1 2 -3 -4 8 -9 11 0
1 2 -3 -4 8 -9 -11 0
1 -2 3 5 6 7 -8 9 -11 12 13 14 0
1 -2 3 5 6 8 -9 11 12 13 -14 0
1 -2 3 5 6 8 -9 -11 12 13 -14 0
1 -2 3 5 -6 8 11 12 13 14 0
1 -2 3 5 -6 8 -11 12 13 -14 0
1 -2 3 5 -8 11 -12 13 0
1 -2 3 5 -8 -11 -12 13 -14 0
1 -2 3 -5 6 8 11 -12 13 14 0
1 -2 3 -5 -6 -11 13 14 0
1 -2 3 -5 6 -8 -9 -11 12 13 14 0
1 -2 3 -5 6 8 9 -11 13 -14 0
1 -2 3 -5 6 8 -9 -11 13 -14 0
1 -2 3 5 6 8 -9 11 -13 15 16 0
1 -2 3 5 6 8 9 11 12 -13 15 16 0
1 -2 3 5 6 8 9 11 -12 -13 15 16 0
1 -2 3 5 6 8 -9 -11 -13 15 16 0
1 -2 3 5 6 -8 -12 -13 15 16 0
1 -2 3 5 -6 11 -13 15 16 0
1 -2 3 5 -6 -11 -13 15 16 0
1 -2 3 5 7 8 9 11 -12 -13 15 -16 17 -18 0
1 -2 3 5 -6 7 8 9 11 12 -13 15 -16 17 -18 0
1 -2 3 5 6 7 8 9 -11 12 -13 15 -16 17 18 0
1 -2 3 5 6 7 8 9 -11 12 -13 15 -16 17 -18 0
1 -2 3 5 -8 9 -13 15 -16 -17 0
1 -2 3 5 8 9 -12 -13 15 -16 -17 -19 0
1 -2 3 5 8 -9 11 -13 15 -16 17 18 0
1 -2 3 5 8 -9 -11 -13 15 -16 17 -18 0
1 -2 3 5 8 -9 -11 -13 15 -16 -17 -19 0
1 -2 3 5 -8 -9 -13 15 -16 -17 0
1 -2 3 -5 -12 -13 15 0
1 -2 3 -5 -7 12 -13 15 0
1 -2 3 -5 -6 7 8 9 -11 12 -13 15 16 19 0
1 -2 3 -5 7 8 9 11 12 -13 15 -16 17 18 19 0
1 -2 3 -5 7 8 9 -11 12 -13 15 -16 17 -18 19 0
1 -2 3 -5 7 -8 9 12 -13 15 -16 -17 19 0
1 -2 3 -5 7 -8 9 -11 12 -13 15 -19 0
1 -2 3 -5 7 -9 -11 12 -13 15 17 -18 0
1 -2 3 -5 7 8 -9 -11 12 -13 15 -17 0
1 -2 3 -5 7 8 -9 11 12 -13 15 -17 19 0
1 -2 3 -8 -13 -15 0
1 -2 3 5 6 8 11 12 -13 -15 20 -21 0
1 -2 3 5 6 8 11 12 -13 -15 20 21 22 -23 0
1 -2 3 5 6 8 9 11 12 -13 -15 20 21 -22 24 0
1 -2 3 5 6 8 -9 11 12 -13 -15 20 21 -22 -24 0
1 -2 3 -5 6 8 9 11 12 -13 -15 20 22 23 0
1 -2 3 -5 6 8 -9 11 12 -13 -15 20 22 -23 0
1 -2 3 -5 6 8 9 11 12 -13 -15 20 21 -22 -24 0
1 -2 3 -5 6 8 -9 11 12 -13 -15 20 -21 -22 -24 0
1 -2 3 6 8 -11 -12 -13 -15 20 0
1 -2 3 6 8 -11 12 -13 -15 20 -22 0
1 -2 3 5 6 8 9 -11 12 -13 -15 20 22 23 0
1 -2 3 -5 6 8 9 -11 12 -13 -15 20 22 23 0
1 -2 3 6 8 -9 -11 12 -13 -15 20 22 -23 0
1 -2 3 8 9 12 -13 -15 -20 0
1 -2 3 8 -9 -13 -15 -20 -25 26 0
1 -2 3 8 -9 -13 -15 -20 -25 -26 -27 0
1 -2 3 5 8 -9 -13 -15 -20 -25 -26 27 0
1 -2 -3 -6 9 11 14 0
1 -2 -3 6 8 9 11 12 14 0
1 -2 -3 6 -8 9 11 -12 14 0
1 -2 -3 6 9 11 -14 0
1 -2 -3 -6 9 11 -14 -28 0
1 -2 -3 9 -11 -13 0
1 -2 -3 8 -9 -14 0
1 -2 -3 8 -9 11 14 0
1 -2 -3 8 -9 -11 14 0
-1 2 3 -4 5 6 -8 9 -11 12 0
-1 2 3 4 -5 6 8 -9 12 0
-1 2 3 4 -6 0
-1 2 -3 8 -10 11 12 0
-1 2 -3 -7 8 10 11 12 0
-1 2 -3 4 6 7 8 9 10 11 12 0
-1 2 -3 4 -6 7 8 9 10 11 12 0
-1 2 -3 -4 6 7 8 9 10 11 12 0
-1 2 -3 -4 -6 7 8 9 10 11 12 0
-1 2 -3 4 7 8 -9 10 11 12 0
-1 2 -3 -4 7 8 -9 10 11 12 0
-1 2 -3 4 8 11 -12 0
-1 2 -3 8 -10 -11 0
-1 2 -3 4 6 8 9 10 -11 12 0
-1 2 -3 -4 6 8 9 10 -11 -12 0
-1 2 -3 -4 6 8 -9 10 -11 0
-1 2 -3 6 -8 -11 -12 0
-1 -2 3 6 -7 8 11 14 16 17 0
-1 -2 3 6 7 8 11 -12 14 16 17 0
-1 -2 3 5 6 7 8 9 11 12 14 16 17 0
-1 -2 3 5 6 7 8 -9 11 12 14 16 17 0
-1 -2 3 -5 6 7 8 9 11 12 14 16 17 0
-1 -2 3 5 6 8 11 -12 13 -14 16 17 0
-1 -2 3 5 6 8 9 11 12 13 -14 16 17 0
-1 -2 3 5 6 8 -9 11 12 13 -14 16 17 0
-1 -2 3 5 6 8 9 11 12 -13 -14 16 17 0
-1 -2 3 5 6 8 -9 11 12 -13 -14 16 17 0
-1 -2 3 -5 6 8 9 11 -12 13 -14 16 17 0
-1 -2 3 -5 6 7 8 9 11 12 13 -14 16 17 0
-1 -2 3 -5 6 -7 8 9 11 12 13 -14 16 17 0
-1 -2 3 6 8 9 11 -12 -16 17 18 0
-1 -2 3 5 6 8 9 11 12 -16 17 18 0
-1 -2 3 -5 6 8 9 11 12 -16 17 18 0
-1 -2 3 5 6 8 -9 11 -16 17 18 0
-1 -2 3 -5 6 8 11 -16 17 -18 0
-1 -2 3 5 6 8 11 -12 -16 17 -18 0
-1 -2 3 5 6 8 9 11 12 -16 17 -18 0
-1 -2 3 5 6 8 -9 11 12 -16 17 -18 0
-1 -2 3 5 6 -8 9 11 13 14 17 0
-1 -2 3 5 6 -8 9 11 13 -14 17 0
-1 -2 3 -5 6 -8 -9 11 13 17 0
-1 -2 3 5 6 -8 -9 11 13 14 17 0
-1 -2 3 5 6 -8 -9 11 13 -14 17 0
-1 -2 3 5 6 -8 -10 11 -13 17 0
-1 -2 3 5 6 -8 9 10 11 -13 16 17 18 0
-1 -2 3 5 6 -8 9 10 11 -13 -16 17 18 0
-1 -2 3 5 6 -8 -9 10 11 -13 -16 17 18 0
-1 -2 3 -6 -8 11 17 0
-1 -2 3 -11 -12 14 17 0
-1 -2 3 -5 10 -11 13 -14 16 17 0
-1 -2 3 5 8 -9 10 -11 13 -14 16 17 0
-1 -2 3 8 9 10 -11 -13 -14 16 17 0
-1 -2 3 6 -8 9 10 -11 -13 -14 16 17 0
-1 -2 3 -6 -8 9 10 -11 -13 -14 16 17 0
-1 -2 3 -8 -9 10 -11 -13 -14 16 17 0
-1 -2 3 5 8 -9 10 -11 -13 -14 16 17 0
-1 -2 3 5 10 -11 -12 -14 -16 17 0
-1 -2 3 5 -6 10 -11 12 -14 -16 17 0
-1 -2 3 5 6 9 10 -11 12 -14 -16 17 18 0
-1 -2 3 5 6 8 -9 10 -11 12 -14 -16 17 -18 0
-1 -2 3 5 6 -8 -9 10 -11 12 -14 -16 17 -18 0
-1 -2 3 -5 -8 10 -11 -14 -16 17 18 0
-1 -2 -3 -7 8 9 11 14 17 0
-1 -2 -3 -6 7 8 9 11 14 17 0
-1 -2 -3 6 8 9 -11 12 14 17 0
-1 -2 -3 6 8 9 -11 -12 14 17 0
-1 -2 -3 6 8 9 -14 -16 17 18 0
-1 -2 -3 6 8 9 11 12 13 -14 16 17 18 0
-1 -2 -3 6 8 9 11 -12 13 -14 16 17 18 0
-1 -2 -3 6 8 9 -11 13 -14 16 17 18 0
-1 -2 -3 6 8 9 -11 -13 -14 16 17 18 0
-1 -2 -3 6 8 9 11 -12 -14 17 -18 0
-1 -2 -3 -6 8 9 13 -14 17 0
-1 -2 -3 -6 8 9 -13 -14 -16 17 -18 0
-1 -2 -3 8 -9 11 13 14 17 0
-1 -2 -3 8 -9 11 13 -14 17 0
-1 -2 -3 8 -9 11 -13 17 -18 0
-1 -2 -3 8 -9 11 -13 16 17 18 0
-1 -2 -3 8 -9 11 -13 -16 17 18 0
-1 -2 -3 8 -9 -11 14 17 0
-1 -2 -3 8 -9 -11 -14 17 0
-1 -2 -3 -8 9 -14 17 0
-1 -2 -3 -8 -9 11 14 16 17 0
-1 -2 -3 -8 -9 -11 14 16 17 0
-1 -2 5 -6 7 10 11 12 -17 21 22 23 0
-1 -2 5 6 7 8 9 10 11 12 -17 19 21 22 23 0
-1 -2 5 6 7 -8 9 10 11 12 -17 19 21 22 23 0
-1 -2 5 6 7 -8 9 10 11 12 -17 -19 21 22 23 0
-1 -2 -3 5 6 7 8 9 10 11 12 -17 -19 21 22 23 0
-1 -2 3 5 6 7 8 9 10 11 12 15 -17 -19 21 22 23 0
-1 -2 3 5 6 7 8 9 10 11 12 -15 -17 -19 21 22 23 0
-1 -2 3 5 6 7 8 -9 10 11 12 -15 -17 21 22 23 0
-1 -2 3 5 6 7 8 -9 10 11 12 15 -17 19 21 22 23 0
-1 -2 3 5 6 7 8 -9 10 11 12 15 -17 -19 21 22 23 0
-1 -2 3 5 6 7 -8 -9 10 11 12 -17 19 21 22 23 0
-1 -2 3 5 6 7 -8 -9 10 11 12 15 -17 -19 21 22 23 0
-1 -2 3 5 6 7 -8 -9 10 11 12 -15 -17 -19 21 22 23 0
-1 -2 -3 5 6 7 8 -9 10 11 12 -17 21 22 23 0
-1 -2 5 7 10 11 -12 15 -17 -19 21 22 23 0
-1 -2 5 7 8 9 10 11 -17 21 22 -23 0
-1 -2 3 5 7 8 -9 10 11 -17 21 22 -23 0
-1 -2 -3 5 7 8 -9 10 11 -17 21 22 -23 0
-1 -2 5 7 -8 9 10 11 -17 21 22 -23 0
-1 -2 -3 5 7 10 11 -17 21 -22 0
-1 -2 3 5 7 8 9 10 11 12 -17 21 -22 24 0
-1 -2 3 5 7 -8 9 10 11 12 -17 21 -22 24 0
-1 -2 3 5 7 -8 9 10 11 12 -17 21 -22 -24 0
-1 -2 3 5 7 -9 10 11 12 -17 21 -22 -24 0
-1 -2 3 5 7 8 -9 10 11 12 -17 21 -22 24 0
-1 -2 3 5 7 10 11 -12 -17 21 -22 24 0
-1 -2 5 8 9 10 -11 12 -17 21 0
-1 -2 5 8 9 10 -11 -12 -17 21 29 0
-1 -2 -3 5 8 -9 10 -11 -17 21 22 0
-1 -2 3 5 8 -9 10 -11 -17 21 22 -23 0
-1 -2 3 5 8 -9 10 -11 -17 19 21 22 23 0
-1 -2 3 5 8 -9 10 -11 15 -17 -19 21 22 23 0
-1 -2 3 5 8 -9 10 -11 -15 -17 -19 21 22 23 0
-1 -2 3 5 8 -9 10 -11 -17 21 -22 24 0
-1 -2 3 5 8 -9 10 -11 -17 21 -22 -24 0
-1 -2 -3 5 -8 10 -11 -17 21 -30 0
-1 -2 -5 8 9 11 12 -17 19 21 22 0
-1 -2 -5 -8 9 11 12 -17 19 21 22 0
-1 -2 -5 8 -9 11 12 -17 19 21 22 0
-1 -2 -5 9 11 12 15 -17 -19 21 22 23 0
-1 -2 -5 9 11 12 -15 -17 -19 21 22 23 0
-1 -2 -5 -9 11 12 15 -17 -19 21 22 23 0
-1 -2 -5 -9 11 12 -15 -17 -19 21 22 23 0
-1 -2 -5 9 11 12 -17 -19 21 22 -23 0
-1 -2 -5 11 -12 -15 -17 21 22 23 0
-1 -2 -5 9 -11 -17 21 22 0
-1 -2 -5 -9 -11 -17 21 22 -23 0
-1 -2 -5 -8 -9 11 -17 21 -22 0
-1 -2 -5 -9 -11 -17 21 -22 24 0
-1 -2 -5 -9 -11 -17 21 -22 -24 0
-1 -2 -17 -21 -31 0
-1 -2 5 8 -11 12 -17 -21 25 31 32 33 0
-1 -2 5 8 9 11 12 -17 -21 25 31 32 33 0
-1 -2 -3 5 8 -9 11 12 -17 -21 25 31 32 33 0
-1 -2 3 5 8 -9 11 12 -17 20 -21 25 31 32 33 0
-1 -2 3 5 8 -9 11 12 -17 -20 -21 25 31 32 33 0
-1 -2 5 8 -12 -17 -20 -21 25 31 32 33 0
-1 -2 5 -8 -9 -17 20 -21 25 31 32 33 0
-1 -2 5 -8 -9 -17 -20 -21 25 31 32 33 0
-1 -2 5 -8 -17 -21 -25 31 32 33 34 0
-1 -2 5 8 -11 -17 -21 -25 31 32 33 34 0
-1 -2 -3 5 8 11 -17 -21 -25 31 32 33 34 0
-1 -2 3 5 8 -9 11 -17 -21 -25 31 32 33 34 0
-1 -2 5 11 -17 -21 -25 27 31 32 33 -34 -35 0
-1 -2 5 9 11 -17 -21 -25 27 31 32 33 -34 35 0
-1 -2 5 -9 11 -17 -21 -25 27 31 32 33 -34 35 0
-1 -2 5 9 11 -17 -21 -25 -27 31 32 33 -34 0
-1 -2 5 -9 11 -17 -21 -25 -27 31 32 33 -34 36 0
-1 -2 5 -9 11 -17 -21 -25 -27 31 32 33 -34 -36 0
-1 -2 5 -11 -17 -21 -25 31 32 33 -34 37 0
-1 -2 -5 9 -17 -21 31 32 33 0
-1 -2 -5 -9 11 -17 20 -21 31 32 33 38 0
-1 -2 -5 -9 -17 -20 -21 31 32 33 34 38 0
-1 -2 -5 -9 -17 -20 -21 31 32 33 -34 -35 38 0
-1 -2 -5 -9 -17 -21 31 32 33 -36 -38 0
-1 -2 -11 -17 -21 31 32 -33 0
-1 -2 11 -17 -21 31 32 -33 39 -40 0
-1 -2 -5 11 -17 -21 31 32 -33 39 40 0
-1 -2 5 8 11 -17 -21 31 32 -33 39 40 0
-1 -2 5 -8 11 -17 -21 31 32 -33 39 40 0
-1 -2 11 -17 -21 31 32 -33 -39 -41 0
-1 -2 5 11 -17 -21 31 32 -33 -39 41 -42 0
-1 -2 5 6 11 -17 -21 31 32 -33 -39 41 42 0
-1 -2 5 -6 11 -17 -21 31 32 -33 -39 41 42 0
-1 -2 -5 11 -17 -21 31 32 -33 -39 41 42 0
-1 -2 -5 -8 11 -17 -21 31 32 -33 -39 41 -42 0
-1 -2 5 11 -17 -21 31 -32 0
